6 1
7 1
8 1
9 0
10 2
11 4
12 3
13 4
14 2
15 0
5 14
6 11
7 14
8 10
9 11
10 13
11 11
12 13
13 10
14 14
15 13
5 23
6 23
7 24
8 23
9 24
10 24
11 23
12 23
13 21
14 23
15 22
5 33
6 31
7 34
8 34
9 33
10 34
11 34
12 34
13 32
14 31
15 30
5 41
6 42
7 43
8 42
9 41
10 44
11 42
12 44
13 42
14 44
15 43
5 50
6 54
7 53
8 50
9 50
10 52
11 51
12 53
13 52
14 53
15 53
5 64
6 61
7 64
8 64
9 63
10 61
11 64
12 64
13 61
14 63
15 64
5 73
6 74
7 70
8 72
9 73
10 74
11 73
12 70
13 71
14 70
15 72
5 83
6 83
7 83
8 81
9 84
10 80
11 84
12 80
13 82
14 80
15 83
5 93
6 94
7 93
8 92
9 92
10 91
11 92
12 92
13 93
14 94
15 92
5 100
6 101
7 101
8 102
9 100
10 101
11 100
12 103
13 100
14 101
15 102
5 114
6 111
7 114
8 113
9 111
10 114
11 110
12 113
13 114
14 111
15 112
5 122
6 123
7 124
8 121
9 122
10 120
11 123
12 122
13 121
